param n := 60;
param c := 10000
param : V : p w :=
   0	  78	 496
   1	  28	 250
   2	  54	 254
   3	  38	 396
   4	  47	 270
   5	 100	 334
   6	  11	 483
   7	  34	 252
   8	  66	 265
   9	  16	 463
  10	  63	 261
  11	  73	 276
  12	  25	 389
  13	  73	 283
  14	  42	 328
  15	  64	 380
  16	  77	 268
  17	  90	 352
  18	   3	 416
  19	  32	 282
  20	  65	 302
  21	  24	 388
  22	  88	 252
  23	  89	 360
  24	  85	 489
  25	  91	 252
  26	  56	 259
  27	  89	 433
  28	  22	 281
  29	  44	 286
  30	  23	 380
  31	  14	 285
  32	  14	 335
  33	  43	 372
  34	  77	 301
  35	  56	 327
  36	  74	 372
  37	  82	 281
  38	  36	 347
  39	   7	 355
  40	  96	 305
  41	  62	 340
  42	  21	 432
  43	  55	 278
  44	  46	 290
  45	  36	 462
  46	  31	 262
  47	  10	 276
  48	  18	 484
  49	  76	 252
  50	  93	 264
  51	  68	 422
  52	  70	 282
  53	  22	 296
  54	  70	 469
  55	  74	 262
  56	  15	 269
  57	  78	 358
  58	  50	 281
  59	  24	 361
;

set E :=
   0	   1
   0	   2
   0	   3
   0	   8
   0	  10
   0	  13
   0	  15
   0	  17
   0	  21
   0	  22
   0	  24
   0	  25
   0	  26
   0	  27
   0	  34
   0	  35
   0	  37
   0	  38
   0	  39
   0	  40
   0	  41
   0	  44
   0	  47
   0	  48
   0	  50
   0	  53
   0	  58
   1	   2
   1	   4
   1	   5
   1	   7
   1	   9
   1	  10
   1	  11
   1	  15
   1	  16
   1	  17
   1	  18
   1	  19
   1	  21
   1	  22
   1	  23
   1	  24
   1	  26
   1	  30
   1	  31
   1	  32
   1	  34
   1	  36
   1	  39
   1	  40
   1	  42
   1	  53
   1	  54
   1	  55
   1	  56
   1	  59
   2	   6
   2	   8
   2	   9
   2	  11
   2	  12
   2	  14
   2	  15
   2	  16
   2	  17
   2	  20
   2	  22
   2	  23
   2	  24
   2	  26
   2	  27
   2	  28
   2	  33
   2	  35
   2	  36
   2	  39
   2	  40
   2	  41
   2	  43
   2	  47
   2	  49
   2	  51
   2	  55
   2	  56
   2	  57
   2	  58
   3	   4
   3	   5
   3	   8
   3	  10
   3	  11
   3	  15
   3	  17
   3	  18
   3	  23
   3	  24
   3	  26
   3	  27
   3	  28
   3	  31
   3	  33
   3	  35
   3	  42
   3	  45
   3	  46
   3	  48
   3	  51
   3	  52
   3	  53
   3	  54
   3	  56
   3	  57
   4	   5
   4	   7
   4	   8
   4	  10
   4	  12
   4	  15
   4	  17
   4	  18
   4	  20
   4	  21
   4	  24
   4	  26
   4	  34
   4	  36
   4	  39
   4	  40
   4	  43
   4	  47
   4	  48
   4	  50
   4	  51
   4	  56
   5	   7
   5	   8
   5	   9
   5	  10
   5	  11
   5	  13
   5	  15
   5	  17
   5	  18
   5	  19
   5	  20
   5	  21
   5	  24
   5	  25
   5	  27
   5	  29
   5	  30
   5	  31
   5	  32
   5	  35
   5	  37
   5	  38
   5	  42
   5	  46
   5	  48
   5	  49
   5	  52
   5	  55
   5	  58
   6	   7
   6	   9
   6	  10
   6	  14
   6	  15
   6	  20
   6	  21
   6	  22
   6	  25
   6	  27
   6	  28
   6	  29
   6	  31
   6	  33
   6	  34
   6	  35
   6	  37
   6	  38
   6	  39
   6	  41
   6	  42
   6	  44
   6	  45
   6	  47
   6	  51
   6	  53
   6	  57
   6	  59
   7	   9
   7	  10
   7	  12
   7	  15
   7	  17
   7	  20
   7	  22
   7	  24
   7	  25
   7	  26
   7	  28
   7	  30
   7	  32
   7	  36
   7	  37
   7	  38
   7	  39
   7	  42
   7	  43
   7	  44
   7	  45
   7	  47
   7	  48
   7	  49
   7	  50
   7	  51
   7	  52
   7	  54
   7	  56
   7	  57
   7	  59
   8	  10
   8	  11
   8	  14
   8	  15
   8	  16
   8	  18
   8	  20
   8	  21
   8	  22
   8	  23
   8	  26
   8	  27
   8	  32
   8	  33
   8	  36
   8	  37
   8	  39
   8	  41
   8	  42
   8	  44
   8	  45
   8	  46
   8	  47
   8	  49
   8	  52
   8	  54
   8	  57
   9	  11
   9	  14
   9	  18
   9	  19
   9	  20
   9	  21
   9	  25
   9	  27
   9	  28
   9	  33
   9	  34
   9	  37
   9	  39
   9	  40
   9	  43
   9	  44
   9	  46
   9	  47
   9	  49
   9	  53
   9	  56
   9	  58
   9	  59
  10	  11
  10	  13
  10	  17
  10	  18
  10	  22
  10	  25
  10	  26
  10	  29
  10	  30
  10	  31
  10	  32
  10	  35
  10	  36
  10	  38
  10	  40
  10	  42
  10	  43
  10	  44
  10	  45
  10	  51
  10	  52
  10	  54
  10	  55
  10	  56
  10	  57
  10	  58
  11	  14
  11	  15
  11	  17
  11	  20
  11	  21
  11	  22
  11	  25
  11	  27
  11	  30
  11	  31
  11	  34
  11	  36
  11	  37
  11	  38
  11	  40
  11	  43
  11	  46
  11	  49
  11	  50
  11	  51
  11	  53
  11	  57
  11	  58
  11	  59
  12	  13
  12	  15
  12	  16
  12	  18
  12	  20
  12	  21
  12	  22
  12	  23
  12	  24
  12	  25
  12	  26
  12	  27
  12	  30
  12	  35
  12	  36
  12	  37
  12	  38
  12	  39
  12	  40
  12	  41
  12	  45
  12	  47
  12	  50
  12	  51
  12	  52
  12	  53
  12	  54
  12	  55
  12	  56
  12	  57
  12	  58
  13	  17
  13	  18
  13	  20
  13	  21
  13	  22
  13	  24
  13	  25
  13	  26
  13	  28
  13	  29
  13	  30
  13	  31
  13	  32
  13	  33
  13	  34
  13	  37
  13	  38
  13	  39
  13	  40
  13	  41
  13	  42
  13	  44
  13	  45
  13	  46
  13	  48
  13	  49
  13	  52
  13	  53
  13	  54
  13	  57
  13	  59
  14	  15
  14	  16
  14	  17
  14	  19
  14	  20
  14	  21
  14	  22
  14	  23
  14	  24
  14	  27
  14	  28
  14	  33
  14	  35
  14	  36
  14	  41
  14	  42
  14	  46
  14	  48
  14	  49
  14	  51
  14	  55
  14	  56
  15	  16
  15	  20
  15	  23
  15	  24
  15	  25
  15	  26
  15	  28
  15	  29
  15	  30
  15	  31
  15	  32
  15	  33
  15	  37
  15	  43
  15	  44
  15	  52
  15	  57
  16	  17
  16	  18
  16	  19
  16	  20
  16	  22
  16	  23
  16	  25
  16	  26
  16	  28
  16	  29
  16	  30
  16	  33
  16	  34
  16	  36
  16	  39
  16	  40
  16	  43
  16	  45
  16	  48
  16	  51
  16	  53
  16	  54
  16	  55
  16	  56
  16	  59
  17	  18
  17	  20
  17	  22
  17	  24
  17	  27
  17	  28
  17	  29
  17	  31
  17	  33
  17	  34
  17	  38
  17	  39
  17	  40
  17	  42
  17	  43
  17	  46
  17	  50
  17	  53
  17	  54
  17	  56
  17	  57
  17	  58
  17	  59
  18	  22
  18	  23
  18	  24
  18	  25
  18	  26
  18	  28
  18	  31
  18	  32
  18	  34
  18	  35
  18	  37
  18	  39
  18	  40
  18	  41
  18	  43
  18	  44
  18	  49
  18	  50
  18	  52
  18	  54
  18	  56
  18	  58
  19	  20
  19	  21
  19	  27
  19	  28
  19	  29
  19	  31
  19	  33
  19	  35
  19	  37
  19	  38
  19	  39
  19	  40
  19	  42
  19	  43
  19	  45
  19	  46
  19	  47
  19	  48
  19	  49
  19	  53
  20	  21
  20	  22
  20	  25
  20	  26
  20	  27
  20	  28
  20	  37
  20	  38
  20	  42
  20	  44
  20	  46
  20	  47
  20	  49
  20	  51
  20	  54
  20	  55
  20	  58
  21	  23
  21	  26
  21	  29
  21	  31
  21	  37
  21	  39
  21	  42
  21	  44
  21	  50
  21	  52
  21	  53
  21	  55
  21	  56
  21	  57
  22	  26
  22	  27
  22	  28
  22	  29
  22	  30
  22	  32
  22	  33
  22	  34
  22	  35
  22	  37
  22	  38
  22	  40
  22	  41
  22	  42
  22	  44
  22	  46
  22	  47
  22	  48
  22	  50
  22	  51
  22	  54
  22	  57
  22	  58
  23	  28
  23	  29
  23	  33
  23	  34
  23	  35
  23	  38
  23	  40
  23	  43
  23	  46
  23	  47
  23	  49
  23	  50
  23	  51
  23	  52
  23	  56
  23	  57
  23	  58
  24	  26
  24	  27
  24	  32
  24	  35
  24	  44
  24	  45
  24	  47
  24	  52
  24	  53
  24	  55
  24	  56
  24	  57
  24	  59
  25	  27
  25	  28
  25	  29
  25	  30
  25	  32
  25	  34
  25	  36
  25	  37
  25	  38
  25	  44
  25	  48
  25	  49
  25	  51
  25	  54
  25	  55
  25	  59
  26	  29
  26	  30
  26	  32
  26	  34
  26	  35
  26	  36
  26	  38
  26	  42
  26	  45
  26	  48
  26	  51
  26	  53
  26	  54
  26	  55
  26	  59
  27	  28
  27	  29
  27	  34
  27	  35
  27	  37
  27	  39
  27	  40
  27	  41
  27	  42
  27	  43
  27	  46
  27	  47
  27	  48
  27	  50
  27	  51
  27	  52
  27	  55
  27	  56
  27	  57
  27	  58
  27	  59
  28	  32
  28	  34
  28	  37
  28	  38
  28	  39
  28	  40
  28	  41
  28	  43
  28	  46
  28	  47
  28	  48
  28	  49
  28	  53
  28	  55
  28	  57
  29	  31
  29	  33
  29	  36
  29	  37
  29	  38
  29	  40
  29	  41
  29	  44
  29	  48
  29	  50
  29	  51
  29	  52
  29	  53
  29	  55
  30	  37
  30	  38
  30	  39
  30	  41
  30	  43
  30	  44
  30	  47
  30	  49
  30	  51
  30	  53
  30	  55
  30	  56
  31	  33
  31	  36
  31	  38
  31	  39
  31	  40
  31	  43
  31	  44
  31	  47
  31	  49
  31	  50
  31	  51
  31	  53
  31	  54
  31	  55
  31	  56
  31	  57
  31	  58
  31	  59
  32	  35
  32	  37
  32	  40
  32	  44
  32	  45
  32	  46
  32	  47
  32	  48
  32	  49
  32	  50
  32	  51
  32	  52
  32	  53
  32	  54
  32	  56
  32	  58
  33	  34
  33	  36
  33	  39
  33	  45
  33	  52
  33	  53
  33	  58
  33	  59
  34	  35
  34	  38
  34	  40
  34	  43
  34	  44
  34	  45
  34	  46
  34	  48
  34	  49
  34	  50
  34	  51
  34	  54
  34	  55
  34	  58
  34	  59
  35	  36
  35	  40
  35	  41
  35	  43
  35	  44
  35	  46
  35	  47
  35	  48
  35	  50
  35	  51
  35	  52
  35	  54
  35	  55
  35	  56
  35	  58
  35	  59
  36	  38
  36	  39
  36	  40
  36	  41
  36	  42
  36	  43
  36	  45
  36	  47
  36	  48
  36	  49
  36	  52
  36	  53
  36	  57
  36	  58
  36	  59
  37	  42
  37	  43
  37	  45
  37	  46
  37	  47
  37	  49
  37	  50
  37	  51
  37	  52
  37	  53
  37	  54
  37	  55
  37	  56
  37	  57
  38	  40
  38	  43
  38	  47
  38	  49
  38	  52
  38	  53
  38	  55
  38	  56
  39	  40
  39	  47
  39	  48
  39	  51
  39	  55
  39	  56
  39	  58
  40	  41
  40	  42
  40	  48
  40	  49
  40	  52
  40	  55
  40	  56
  41	  43
  41	  44
  41	  48
  41	  53
  41	  54
  41	  55
  41	  56
  41	  57
  41	  58
  41	  59
  42	  43
  42	  45
  42	  46
  42	  47
  42	  48
  42	  50
  42	  51
  42	  54
  42	  58
  43	  45
  43	  48
  43	  49
  43	  53
  43	  54
  43	  56
  43	  58
  44	  46
  44	  47
  44	  52
  44	  54
  44	  56
  44	  59
  45	  51
  45	  53
  45	  54
  45	  56
  45	  58
  46	  49
  46	  50
  46	  51
  46	  53
  46	  55
  46	  57
  46	  58
  47	  50
  47	  51
  47	  52
  47	  56
  47	  58
  47	  59
  48	  49
  48	  50
  48	  52
  48	  53
  48	  54
  48	  59
  49	  51
  49	  53
  49	  56
  49	  57
  49	  58
  50	  52
  50	  54
  50	  55
  50	  56
  50	  57
  50	  58
  50	  59
  51	  53
  51	  55
  51	  56
  51	  57
  51	  59
  52	  53
  52	  54
  52	  57
  52	  58
  52	  59
  53	  59
  54	  56
  55	  57
  55	  58
  56	  57
  56	  58
  58	  59
;
